Minimize
 obj: + 216.7 x_user1_load0_hour0 + 183.5 x_user1_load0_hour1 
 + 152.9 x_user1_load0_hour2 + 141 x_user1_load0_hour3 
 + 127.8 x_user1_load0_hour4 + 119.4 x_user1_load0_hour5 
 + 113.4 x_user1_load0_hour6 + 124.2 x_user1_load0_hour7 
 + 143.5 x_user1_load0_hour8 + 163.7 x_user1_load0_hour9 
 + 219.6 x_user1_load1_hour0 + 177.4 x_user1_load1_hour1 
 + 153.8 x_user1_load1_hour2 + 138.8 x_user1_load1_hour3 
 + 130.8 x_user1_load1_hour4 + 115.2 x_user1_load1_hour5 
 + 110.4 x_user1_load1_hour6 + 126 x_user1_load1_hour7 
 + 140.4 x_user1_load1_hour8 + 163.6 x_user1_load1_hour9 
 + 193.4 x_user1_load1_hour10 + 248.7 x_user1_load2_hour0 
 + 216.5 x_user1_load2_hour1 + 177 x_user1_load2_hour2 
 + 165.4 x_user1_load2_hour3 + 146.4 x_user1_load2_hour4 
 + 141.6 x_user1_load2_hour5 + 135 x_user1_load2_hour6 
 + 144.6 x_user1_load2_hour7 + 170.6 x_user1_load2_hour8 
 + 192.7 x_user1_load2_hour9 + 154.9 x_user1_load3_hour0 
 + 131.6 x_user1_load3_hour1 + 105.7 x_user1_load3_hour2 
 + 97.2 x_user1_load3_hour3 + 88.2 x_user1_load3_hour4 
 + 82.8 x_user1_load3_hour5 + 72.6 x_user1_load3_hour6 
 + 78 x_user1_load3_hour7 + 90.6 x_user1_load3_hour8 
 + 100.9 x_user1_load3_hour9 + 120.6 x_user1_load3_hour10 
 + 246.8 x_user1_load4_hour0 + 213.7 x_user1_load4_hour1 
 + 176.4 x_user1_load4_hour2 + 161.8 x_user1_load4_hour3 
 + 147 x_user1_load4_hour4 + 145.2 x_user1_load4_hour5 
 + 136.8 x_user1_load4_hour6 + 149.5 x_user1_load4_hour7 
 + 175.6 x_user1_load4_hour8 + 120 x_user1_load5_hour0 
 + 104.7 x_user1_load5_hour1 + 80.7 x_user1_load5_hour2 
 + 75 x_user1_load5_hour3 + 66.6 x_user1_load5_hour4 
 + 64.8 x_user1_load5_hour5 + 54 x_user1_load5_hour6 
 + 55.8 x_user1_load5_hour7 + 66.6 x_user1_load5_hour8 
 + 72 x_user1_load5_hour9 + 86.7 x_user1_load5_hour10 
 + 101.7 x_user1_load5_hour11 + 184.7 x_user1_load6_hour0 
 + 150.5 x_user1_load6_hour1 + 128.8 x_user1_load6_hour2 
 + 116.6 x_user1_load6_hour3 + 109.2 x_user1_load6_hour4 
 + 97.2 x_user1_load6_hour5 + 91.8 x_user1_load6_hour6 
 + 103.8 x_user1_load6_hour7 + 116.4 x_user1_load6_hour8 
 + 134.7 x_user1_load6_hour9 + 159.5 x_user1_load6_hour10 

Subject To 
 load_load0_scheduled: + 1 x_user1_load0_hour0 + 1 x_user1_load0_hour1 
 + 1 x_user1_load0_hour2 + 1 x_user1_load0_hour3 + 1 x_user1_load0_hour4 
 + 1 x_user1_load0_hour5 + 1 x_user1_load0_hour6 + 1 x_user1_load0_hour7 
 + 1 x_user1_load0_hour8 + 1 x_user1_load0_hour9  = 1.0
 load_load1_scheduled: + 1 x_user1_load1_hour0 + 1 x_user1_load1_hour1 
 + 1 x_user1_load1_hour2 + 1 x_user1_load1_hour3 + 1 x_user1_load1_hour4 
 + 1 x_user1_load1_hour5 + 1 x_user1_load1_hour6 + 1 x_user1_load1_hour7 
 + 1 x_user1_load1_hour8 + 1 x_user1_load1_hour9 + 1 x_user1_load1_hour10 
  = 1.0
 load_load2_scheduled: + 1 x_user1_load2_hour0 + 1 x_user1_load2_hour1 
 + 1 x_user1_load2_hour2 + 1 x_user1_load2_hour3 + 1 x_user1_load2_hour4 
 + 1 x_user1_load2_hour5 + 1 x_user1_load2_hour6 + 1 x_user1_load2_hour7 
 + 1 x_user1_load2_hour8 + 1 x_user1_load2_hour9  = 1.0
 load_load3_scheduled: + 1 x_user1_load3_hour0 + 1 x_user1_load3_hour1 
 + 1 x_user1_load3_hour2 + 1 x_user1_load3_hour3 + 1 x_user1_load3_hour4 
 + 1 x_user1_load3_hour5 + 1 x_user1_load3_hour6 + 1 x_user1_load3_hour7 
 + 1 x_user1_load3_hour8 + 1 x_user1_load3_hour9 + 1 x_user1_load3_hour10 
  = 1.0
 load_load4_scheduled: + 1 x_user1_load4_hour0 + 1 x_user1_load4_hour1 
 + 1 x_user1_load4_hour2 + 1 x_user1_load4_hour3 + 1 x_user1_load4_hour4 
 + 1 x_user1_load4_hour5 + 1 x_user1_load4_hour6 + 1 x_user1_load4_hour7 
 + 1 x_user1_load4_hour8  = 1.0
 load_load5_scheduled: + 1 x_user1_load5_hour0 + 1 x_user1_load5_hour1 
 + 1 x_user1_load5_hour2 + 1 x_user1_load5_hour3 + 1 x_user1_load5_hour4 
 + 1 x_user1_load5_hour5 + 1 x_user1_load5_hour6 + 1 x_user1_load5_hour7 
 + 1 x_user1_load5_hour8 + 1 x_user1_load5_hour9 + 1 x_user1_load5_hour10 
 + 1 x_user1_load5_hour11  = 1.0
 load_load6_scheduled: + 1 x_user1_load6_hour0 + 1 x_user1_load6_hour1 
 + 1 x_user1_load6_hour2 + 1 x_user1_load6_hour3 + 1 x_user1_load6_hour4 
 + 1 x_user1_load6_hour5 + 1 x_user1_load6_hour6 + 1 x_user1_load6_hour7 
 + 1 x_user1_load6_hour8 + 1 x_user1_load6_hour9 + 1 x_user1_load6_hour10 
  = 1.0
 MaxLoadConnection_user1_0: + 3 x_user1_load0_hour0 + 2 x_user1_load1_hour0 
 + 4 x_user1_load2_hour0 + 3 x_user1_load3_hour0 + 4 x_user1_load4_hour0 
 + 3 x_user1_load5_hour0 + 2 x_user1_load6_hour0  <= 4.0
 MaxLoadConnection_user1_1: + 3 x_user1_load0_hour1 + 2 x_user1_load0_hour0 
 + 2 x_user1_load1_hour1 + 4 x_user1_load1_hour0 + 4 x_user1_load2_hour1 
 + 1 x_user1_load2_hour0 + 3 x_user1_load3_hour1 + 1 x_user1_load3_hour0 
 + 4 x_user1_load4_hour1 + 1 x_user1_load4_hour0 + 3 x_user1_load5_hour1 
 + 2 x_user1_load6_hour1 + 3 x_user1_load6_hour0  <= 4.0
 MaxLoadConnection_user1_2: + 3 x_user1_load0_hour2 + 2 x_user1_load0_hour1 
 + 1 x_user1_load0_hour0 + 2 x_user1_load1_hour2 + 4 x_user1_load1_hour1 
 + 4 x_user1_load2_hour2 + 1 x_user1_load2_hour1 + 2 x_user1_load2_hour0 
 + 3 x_user1_load3_hour2 + 1 x_user1_load3_hour1 + 4 x_user1_load4_hour2 
 + 1 x_user1_load4_hour1 + 1 x_user1_load4_hour0 + 3 x_user1_load5_hour2 
 + 2 x_user1_load6_hour2 + 3 x_user1_load6_hour1  <= 4.0
 MaxLoadConnection_user1_3: + 3 x_user1_load0_hour3 + 2 x_user1_load0_hour2 
 + 1 x_user1_load0_hour1 + 2 x_user1_load1_hour3 + 4 x_user1_load1_hour2 
 + 4 x_user1_load2_hour3 + 1 x_user1_load2_hour2 + 2 x_user1_load2_hour1 
 + 3 x_user1_load3_hour3 + 1 x_user1_load3_hour2 + 4 x_user1_load4_hour3 
 + 1 x_user1_load4_hour2 + 1 x_user1_load4_hour1 + 1 x_user1_load4_hour0 
 + 3 x_user1_load5_hour3 + 2 x_user1_load6_hour3 + 3 x_user1_load6_hour2 
  <= 4.0
 MaxLoadConnection_user1_4: + 3 x_user1_load0_hour4 + 2 x_user1_load0_hour3 
 + 1 x_user1_load0_hour2 + 2 x_user1_load1_hour4 + 4 x_user1_load1_hour3 
 + 4 x_user1_load2_hour4 + 1 x_user1_load2_hour3 + 2 x_user1_load2_hour2 
 + 3 x_user1_load3_hour4 + 1 x_user1_load3_hour3 + 4 x_user1_load4_hour4 
 + 1 x_user1_load4_hour3 + 1 x_user1_load4_hour2 + 1 x_user1_load4_hour1 
 + 3 x_user1_load5_hour4 + 2 x_user1_load6_hour4 + 3 x_user1_load6_hour3 
  <= 4.0
 MaxLoadConnection_user1_5: + 3 x_user1_load0_hour5 + 2 x_user1_load0_hour4 
 + 1 x_user1_load0_hour3 + 2 x_user1_load1_hour5 + 4 x_user1_load1_hour4 
 + 4 x_user1_load2_hour5 + 1 x_user1_load2_hour4 + 2 x_user1_load2_hour3 
 + 3 x_user1_load3_hour5 + 1 x_user1_load3_hour4 + 4 x_user1_load4_hour5 
 + 1 x_user1_load4_hour4 + 1 x_user1_load4_hour3 + 1 x_user1_load4_hour2 
 + 3 x_user1_load5_hour5 + 2 x_user1_load6_hour5 + 3 x_user1_load6_hour4 
  <= 4.0
 MaxLoadConnection_user1_6: + 3 x_user1_load0_hour6 + 2 x_user1_load0_hour5 
 + 1 x_user1_load0_hour4 + 2 x_user1_load1_hour6 + 4 x_user1_load1_hour5 
 + 4 x_user1_load2_hour6 + 1 x_user1_load2_hour5 + 2 x_user1_load2_hour4 
 + 3 x_user1_load3_hour6 + 1 x_user1_load3_hour5 + 4 x_user1_load4_hour6 
 + 1 x_user1_load4_hour5 + 1 x_user1_load4_hour4 + 1 x_user1_load4_hour3 
 + 3 x_user1_load5_hour6 + 2 x_user1_load6_hour6 + 3 x_user1_load6_hour5 
  <= 4.0
 MaxLoadConnection_user1_7: + 3 x_user1_load0_hour7 + 2 x_user1_load0_hour6 
 + 1 x_user1_load0_hour5 + 2 x_user1_load1_hour7 + 4 x_user1_load1_hour6 
 + 4 x_user1_load2_hour7 + 1 x_user1_load2_hour6 + 2 x_user1_load2_hour5 
 + 3 x_user1_load3_hour7 + 1 x_user1_load3_hour6 + 4 x_user1_load4_hour7 
 + 1 x_user1_load4_hour6 + 1 x_user1_load4_hour5 + 1 x_user1_load4_hour4 
 + 3 x_user1_load5_hour7 + 2 x_user1_load6_hour7 + 3 x_user1_load6_hour6 
  <= 4.0
 MaxLoadConnection_user1_8: + 3 x_user1_load0_hour8 + 2 x_user1_load0_hour7 
 + 1 x_user1_load0_hour6 + 2 x_user1_load1_hour8 + 4 x_user1_load1_hour7 
 + 4 x_user1_load2_hour8 + 1 x_user1_load2_hour7 + 2 x_user1_load2_hour6 
 + 3 x_user1_load3_hour8 + 1 x_user1_load3_hour7 + 4 x_user1_load4_hour8 
 + 1 x_user1_load4_hour7 + 1 x_user1_load4_hour6 + 1 x_user1_load4_hour5 
 + 3 x_user1_load5_hour8 + 2 x_user1_load6_hour8 + 3 x_user1_load6_hour7 
  <= 4.0
 MaxLoadConnection_user1_9: + 3 x_user1_load0_hour9 + 2 x_user1_load0_hour8 
 + 1 x_user1_load0_hour7 + 2 x_user1_load1_hour9 + 4 x_user1_load1_hour8 
 + 4 x_user1_load2_hour9 + 1 x_user1_load2_hour8 + 2 x_user1_load2_hour7 
 + 3 x_user1_load3_hour9 + 1 x_user1_load3_hour8 + 1 x_user1_load4_hour8 
 + 1 x_user1_load4_hour7 + 1 x_user1_load4_hour6 + 3 x_user1_load5_hour9 
 + 2 x_user1_load6_hour9 + 3 x_user1_load6_hour8  <= 4.0
 MaxLoadConnection_user1_10: + 2 x_user1_load0_hour9 + 1 x_user1_load0_hour8 
 + 2 x_user1_load1_hour10 + 4 x_user1_load1_hour9 + 1 x_user1_load2_hour9 
 + 2 x_user1_load2_hour8 + 3 x_user1_load3_hour10 + 1 x_user1_load3_hour9 
 + 1 x_user1_load4_hour8 + 1 x_user1_load4_hour7 + 3 x_user1_load5_hour10 
 + 2 x_user1_load6_hour10 + 3 x_user1_load6_hour9  <= 4.0
 MaxLoadConnection_user1_11: + 1 x_user1_load0_hour9 + 4 x_user1_load1_hour10 
 + 2 x_user1_load2_hour9 + 1 x_user1_load3_hour10 + 1 x_user1_load4_hour8 
 + 3 x_user1_load5_hour11 + 3 x_user1_load6_hour10  <= 4.0

Bounds

Binary
 x_user1_load0_hour0 x_user1_load0_hour1 x_user1_load0_hour2
  x_user1_load0_hour3 x_user1_load0_hour4 x_user1_load0_hour5
  x_user1_load0_hour6 x_user1_load0_hour7 x_user1_load0_hour8
  x_user1_load0_hour9 x_user1_load1_hour0 x_user1_load1_hour1
  x_user1_load1_hour2 x_user1_load1_hour3 x_user1_load1_hour4
  x_user1_load1_hour5 x_user1_load1_hour6 x_user1_load1_hour7
  x_user1_load1_hour8 x_user1_load1_hour9 x_user1_load1_hour10
  x_user1_load2_hour0 x_user1_load2_hour1 x_user1_load2_hour2
  x_user1_load2_hour3 x_user1_load2_hour4 x_user1_load2_hour5
  x_user1_load2_hour6 x_user1_load2_hour7 x_user1_load2_hour8
  x_user1_load2_hour9 x_user1_load3_hour0 x_user1_load3_hour1
  x_user1_load3_hour2 x_user1_load3_hour3 x_user1_load3_hour4
  x_user1_load3_hour5 x_user1_load3_hour6 x_user1_load3_hour7
  x_user1_load3_hour8 x_user1_load3_hour9 x_user1_load3_hour10
  x_user1_load4_hour0 x_user1_load4_hour1 x_user1_load4_hour2
  x_user1_load4_hour3 x_user1_load4_hour4 x_user1_load4_hour5
  x_user1_load4_hour6 x_user1_load4_hour7 x_user1_load4_hour8
  x_user1_load5_hour0 x_user1_load5_hour1 x_user1_load5_hour2
  x_user1_load5_hour3 x_user1_load5_hour4 x_user1_load5_hour5
  x_user1_load5_hour6 x_user1_load5_hour7 x_user1_load5_hour8
  x_user1_load5_hour9 x_user1_load5_hour10 x_user1_load5_hour11
  x_user1_load6_hour0 x_user1_load6_hour1 x_user1_load6_hour2
  x_user1_load6_hour3 x_user1_load6_hour4 x_user1_load6_hour5
  x_user1_load6_hour6 x_user1_load6_hour7 x_user1_load6_hour8
  x_user1_load6_hour9 x_user1_load6_hour10
General

End